
Gurobi 10.0.1 (win64) logging started Mon Aug 28 18:51:21 2023

Set parameter LogFile to value "results//log/BA_08_deadline.log"
Gurobi Optimizer version 10.0.1 build v10.0.1rc0 (win64)

CPU model: AMD Ryzen 7 3700X 8-Core Processor, instruction set [SSE2|AVX|AVX2]
Thread count: 8 physical cores, 16 logical processors, using up to 16 threads

Optimize a model with 177 rows, 124 columns and 652 nonzeros
Model fingerprint: 0xdb4c4982
Model has 1 quadratic constraint
Variable types: 18 continuous, 106 integer (105 binary)
Coefficient statistics:
  Matrix range     [1e+00, 1e+06]
  QMatrix range    [1e+00, 1e+00]
  QLMatrix range   [1e+00, 7e+00]
  Objective range  [1e+00, 1e+00]
  Bounds range     [1e+00, 1e+00]
  RHS range        [1e+00, 3e+06]
Presolve removed 37 rows and 51 columns
Presolve time: 0.00s
Presolved: 147 rows, 79 columns, 625 nonzeros
Variable types: 24 continuous, 55 integer (54 binary)

Root relaxation: objective 0.000000e+00, 21 iterations, 0.00 seconds (0.00 work units)

    Nodes    |    Current Node    |     Objective Bounds      |     Work
 Expl Unexpl |  Obj  Depth IntInf | Incumbent    BestBd   Gap | It/Node Time

     0     0    0.00000    0    9          -    0.00000      -     -    0s
H    0     0                      57.0000000    0.00000   100%     -    0s
H    0     0                      52.0000000    0.00000   100%     -    0s
H    0     0                      49.0000000    0.00000   100%     -    0s
H    0     0                      48.0000000    0.00000   100%     -    0s
     0     0    0.00000    0    8   48.00000    0.00000   100%     -    0s
H    0     0                      36.0000000    0.00000   100%     -    0s
H    0     0                      34.0000000    0.00000   100%     -    0s
     0     0    0.00000    0    9   34.00000    0.00000   100%     -    0s
     0     0    0.00000    0    9   34.00000    0.00000   100%     -    0s
H    0     0                      33.0000000    0.00000   100%     -    0s
H    0     0                      32.0000000    0.00000   100%     -    0s
H    0     0                      31.0000000    0.00000   100%     -    0s
     0     0    0.00000    0   10   31.00000    0.00000   100%     -    0s
     0     0    0.00000    0    6   31.00000    0.00000   100%     -    0s
     0     0    0.00000    0    6   31.00000    0.00000   100%     -    0s
     0     0    0.00000    0    4   31.00000    0.00000   100%     -    0s
H    0     0                      25.0000000    0.00000   100%     -    0s
     0     0    5.33920    0    6   25.00000    5.33920  78.6%     -    0s
     0     0    5.33920    0   11   25.00000    5.33920  78.6%     -    0s
     0     0    6.99963    0    8   25.00000    6.99963  72.0%     -    0s
     0     0    7.00000    0    9   25.00000    7.00000  72.0%     -    0s
     0     0    8.00000    0   11   25.00000    8.00000  68.0%     -    0s
     0     0    8.04065    0   10   25.00000    8.04065  67.8%     -    0s
     0     0   10.00000    0   12   25.00000   10.00000  60.0%     -    0s
     0     0   14.00000    0   12   25.00000   14.00000  44.0%     -    0s
     0     0   17.17391    0   11   25.00000   17.17391  31.3%     -    0s
     0     0   19.00000    0   10   25.00000   19.00000  24.0%     -    0s
     0     1   19.00000    0    7   25.00000   19.00000  24.0%     -    0s

Cutting planes:
  Learned: 24
  Cover: 11
  Implied bound: 5
  MIR: 8
  Flow cover: 16
  RLT: 6

Explored 959 nodes (1137 simplex iterations) in 0.09 seconds (0.04 work units)
Thread count was 16 (of 16 available processors)

Solution count 10: 25 25 31 ... 52

Optimal solution found (tolerance 1.00e-04)
Best objective 2.500000000000e+01, best bound 2.500000000000e+01, gap 0.0000%
Warning: constraint name "precedence between 0,1 to 0,0 if x_[j,l,h,z,i]=1" has a space
Warning: constraint name "precedence between 0,1 to 0,0 if x_[j,l,h,z,i]=1" has a space
Warning: default constraint names used to write mps file
